SECTION Graph
Nodes 343
Edges 559
E 1 2 5
E 2 3 5
E 3 4 5
E 4 5 5
E 5 6 5
E 6 7 5
E 7 8 5
E 8 9 5
E 9 10 5
E 10 11 5
E 11 12 5
E 12 13 5
E 13 14 5
E 14 15 5
E 15 16 5
E 16 17 5
E 17 18 5
E 18 19 5
E 19 20 5
E 20 21 5
E 21 22 5
E 22 23 5
E 23 24 5
E 24 25 5
E 1 26 13
E 2 27 13
E 3 28 13
E 4 29 13
E 5 30 13
E 6 31 13
E 7 32 13
E 8 33 13
E 9 34 13
E 10 35 13
E 11 36 13
E 12 37 13
E 13 38 13
E 14 39 13
E 15 40 13
E 16 41 13
E 19 44 13
E 22 47 13
E 23 48 13
E 24 49 13
E 25 50 13
E 26 27 5
E 27 28 5
E 28 29 5
E 29 30 5
E 30 31 5
E 31 32 5
E 32 33 5
E 33 34 5
E 34 35 5
E 35 36 5
E 36 37 5
E 37 38 5
E 38 39 5
E 39 40 5
E 40 41 5
E 41 42 5
E 42 43 5
E 43 44 5
E 44 45 5
E 45 46 5
E 46 47 5
E 47 48 5
E 48 49 5
E 49 50 5
E 26 51 13
E 27 52 13
E 28 53 13
E 29 54 13
E 32 57 13
E 35 60 13
E 38 63 13
E 41 66 13
E 42 67 13
E 45 70 13
E 48 73 13
E 49 74 13
E 50 75 13
E 51 52 5
E 52 53 5
E 53 54 5
E 54 55 5
E 55 56 5
E 56 57 5
E 57 58 5
E 58 59 5
E 59 60 5
E 60 61 5
E 61 62 5
E 62 63 5
E 63 64 5
E 64 65 5
E 65 66 5
E 66 67 5
E 67 68 5
E 68 69 5
E 69 70 5
E 70 71 5
E 71 72 5
E 72 73 5
E 73 74 5
E 74 75 5
E 51 76 13
E 52 77 13
E 55 80 13
E 58 83 13
E 61 86 13
E 64 89 13
E 65 90 13
E 66 91 13
E 69 94 13
E 72 97 13
E 73 98 13
E 74 99 13
E 75 100 13
E 76 77 5
E 77 78 5
E 78 79 5
E 79 80 5
E 80 81 5
E 81 82 5
E 82 83 5
E 83 84 5
E 84 85 5
E 85 86 5
E 86 87 5
E 87 88 5
E 88 89 5
E 89 90 5
E 90 91 5
E 91 92 5
E 92 93 5
E 93 94 5
E 94 95 5
E 95 96 5
E 96 97 5
E 97 98 5
E 98 99 5
E 99 100 5
E 76 101 13
E 79 104 13
E 82 107 13
E 84 108 13
E 85 109 13
E 88 112 13
E 89 113 13
E 91 114 13
E 92 115 13
E 93 116 13
E 94 117 13
E 95 118 13
E 96 119 13
E 97 120 13
E 98 121 13
E 99 122 13
E 100 123 13
E 101 102 5
E 102 103 5
E 103 104 5
E 104 105 5
E 105 106 5
E 106 107 5
E 108 109 5
E 109 110 5
E 110 111 5
E 111 112 5
E 112 113 5
E 114 115 5
E 115 116 5
E 116 117 5
E 117 118 5
E 118 119 5
E 119 120 5
E 120 121 5
E 121 122 5
E 122 123 5
E 101 124 13
E 102 125 13
E 103 126 13
E 104 127 13
E 105 128 13
E 106 129 13
E 107 130 13
E 108 131 13
E 109 132 13
E 110 133 13
E 111 134 13
E 112 135 13
E 113 136 13
E 114 137 13
E 115 138 13
E 116 139 13
E 117 140 13
E 118 141 13
E 119 142 13
E 120 143 13
E 121 144 13
E 122 145 13
E 123 146 13
E 124 125 5
E 125 126 5
E 126 127 5
E 127 128 5
E 128 129 5
E 129 130 5
E 131 132 5
E 132 133 5
E 133 134 5
E 134 135 5
E 135 136 5
E 137 138 5
E 138 139 5
E 139 140 5
E 140 141 5
E 141 142 5
E 142 143 5
E 143 144 5
E 144 145 5
E 145 146 5
E 124 147 13
E 125 148 13
E 126 149 13
E 127 150 13
E 128 151 13
E 129 152 13
E 130 153 13
E 131 155 13
E 132 156 13
E 133 157 13
E 136 160 13
E 137 162 13
E 138 163 13
E 139 164 13
E 140 165 13
E 142 166 13
E 143 167 13
E 144 168 13
E 146 169 13
E 147 148 5
E 148 149 5
E 149 150 5
E 150 151 5
E 151 152 5
E 152 153 5
E 153 154 5
E 154 155 5
E 155 156 5
E 156 157 5
E 157 158 5
E 158 159 5
E 159 160 5
E 160 161 5
E 161 162 5
E 162 163 5
E 163 164 5
E 164 165 5
E 166 167 5
E 167 168 5
E 147 170 13
E 148 171 13
E 149 172 13
E 150 173 13
E 151 174 13
E 153 175 13
E 154 176 13
E 155 177 13
E 157 178 13
E 158 179 13
E 159 180 13
E 160 181 13
E 161 182 13
E 162 183 13
E 165 186 13
E 166 187 13
E 167 188 13
E 168 189 13
E 169 190 13
E 170 171 5
E 171 172 5
E 172 173 5
E 173 174 5
E 175 176 5
E 176 177 5
E 178 179 5
E 179 180 5
E 180 181 5
E 181 182 5
E 182 183 5
E 183 184 5
E 184 185 5
E 185 186 5
E 187 188 5
E 188 189 5
E 170 191 13
E 171 192 13
E 172 193 13
E 173 194 13
E 174 195 13
E 175 196 13
E 177 197 13
E 178 198 13
E 179 199 13
E 180 200 13
E 181 201 13
E 182 202 13
E 184 203 13
E 186 204 13
E 187 206 13
E 189 207 13
E 190 209 13
E 191 192 5
E 192 193 5
E 193 194 5
E 194 195 5
E 198 199 5
E 199 200 5
E 200 201 5
E 201 202 5
E 204 205 5
E 205 206 5
E 207 208 5
E 208 209 5
E 191 210 13
E 193 211 13
E 194 212 13
E 195 213 13
E 196 215 13
E 197 216 13
E 198 218 13
E 200 219 13
E 202 220 13
E 203 221 13
E 204 222 13
E 205 223 13
E 206 224 13
E 207 225 13
E 208 226 13
E 209 227 13
E 211 212 5
E 212 213 5
E 213 214 5
E 214 215 5
E 216 217 5
E 217 218 5
E 222 223 5
E 223 224 5
E 225 226 5
E 226 227 5
E 210 228 13
E 211 229 13
E 212 230 13
E 213 231 13
E 214 232 13
E 215 233 13
E 216 235 13
E 217 236 13
E 218 237 13
E 219 238 13
E 220 239 13
E 221 241 13
E 222 243 13
E 223 244 13
E 224 245 13
E 225 247 13
E 226 248 13
E 227 249 13
E 229 230 5
E 230 231 5
E 231 232 5
E 232 233 5
E 233 234 5
E 234 235 5
E 235 236 5
E 236 237 5
E 239 240 5
E 240 241 5
E 241 242 5
E 242 243 5
E 243 244 5
E 244 245 5
E 245 246 5
E 246 247 5
E 247 248 5
E 248 249 5
E 228 250 13
E 229 252 13
E 231 253 13
E 233 254 13
E 234 255 13
E 235 256 13
E 236 257 13
E 237 258 13
E 238 260 13
E 239 262 13
E 240 263 13
E 241 264 13
E 242 265 13
E 243 266 13
E 244 267 13
E 245 268 13
E 246 269 13
E 247 270 13
E 248 271 13
E 249 272 13
E 250 251 5
E 251 252 5
E 254 255 5
E 255 256 5
E 256 257 5
E 257 258 5
E 258 259 5
E 259 260 5
E 260 261 5
E 261 262 5
E 262 263 5
E 263 264 5
E 264 265 5
E 265 266 5
E 266 267 5
E 267 268 5
E 268 269 5
E 269 270 5
E 270 271 5
E 271 272 5
E 250 273 13
E 251 274 13
E 252 275 13
E 253 276 13
E 254 277 13
E 255 278 13
E 256 279 13
E 257 280 13
E 258 281 13
E 259 282 13
E 260 283 13
E 261 284 13
E 262 285 13
E 264 286 13
E 265 287 13
E 266 288 13
E 267 289 13
E 268 290 13
E 269 291 13
E 270 292 13
E 271 293 13
E 272 294 13
E 273 274 5
E 274 275 5
E 277 278 5
E 278 279 5
E 279 280 5
E 280 281 5
E 281 282 5
E 282 283 5
E 283 284 5
E 284 285 5
E 286 287 5
E 287 288 5
E 288 289 5
E 289 290 5
E 290 291 5
E 291 292 5
E 292 293 5
E 293 294 5
E 273 295 13
E 274 296 13
E 275 297 13
E 276 299 13
E 277 301 13
E 278 302 13
E 279 303 13
E 280 304 13
E 281 305 13
E 282 306 13
E 283 307 13
E 284 308 13
E 285 309 13
E 286 310 13
E 287 311 13
E 288 312 13
E 289 313 13
E 290 314 13
E 291 315 13
E 292 316 13
E 293 317 13
E 294 318 13
E 295 296 5
E 296 297 5
E 297 298 5
E 298 299 5
E 299 300 5
E 300 301 5
E 301 302 5
E 302 303 5
E 303 304 5
E 304 305 5
E 305 306 5
E 306 307 5
E 307 308 5
E 308 309 5
E 310 311 5
E 311 312 5
E 312 313 5
E 313 314 5
E 314 315 5
E 315 316 5
E 316 317 5
E 317 318 5
E 295 319 13
E 296 320 13
E 297 321 13
E 298 322 13
E 299 323 13
E 300 324 13
E 301 325 13
E 302 326 13
E 303 327 13
E 304 328 13
E 305 329 13
E 306 330 13
E 307 331 13
E 308 332 13
E 309 333 13
E 310 335 13
E 311 336 13
E 312 337 13
E 313 338 13
E 314 339 13
E 316 341 13
E 317 342 13
E 318 343 13
E 319 320 5
E 320 321 5
E 321 322 5
E 322 323 5
E 323 324 5
E 324 325 5
E 325 326 5
E 326 327 5
E 327 328 5
E 328 329 5
E 329 330 5
E 330 331 5
E 331 332 5
E 332 333 5
E 333 334 5
E 334 335 5
E 335 336 5
E 336 337 5
E 337 338 5
E 338 339 5
E 339 340 5
E 340 341 5
E 341 342 5
E 342 343 5
END

SECTION Terminals
Terminals 17
T 21
T 83
T 90
T 141
T 145
T 152
T 156
T 176
T 183
T 185
T 188
T 192
T 199
T 201
T 230
T 232
T 263
END

EOF
